SDVRP instances/custom_instances/p01_19_split0.vrp
NAME:p01_19_split
BEST_KNOWN: 0
COMMENT: 0
DIMENSION: 196
CAPACITY: 160
EDGE_WEIGHT_FORMAT: FUNCTION
EDGE_WEIGHT_TYPE: EXACT_2D
NODE_COORD_SECTION
1 0.00000 0.00000
2 21 39
3 21 39
4 21 39
5 -40 -44
6 -40 -44
7 -40 -44
8 -40 -44
9 6 -22
10 6 -22
11 6 -22
12 6 -22
13 6 -22
14 6 -22
15 -26 45
16 -26 45
17 -26 45
18 -26 45
19 -26 45
20 -26 45
21 45 -2
22 45 -2
23 45 -2
24 45 -2
25 45 -2
26 -30 3
27 -30 3
28 -30 3
29 -30 3
30 -30 3
31 -36 -50
32 -36 -50
33 -36 -50
34 -36 -50
35 -35 34
36 -35 34
37 -35 34
38 25 5
39 13 -17
40 13 -17
41 13 -17
42 35 37
43 35 37
44 40 -36
45 40 -36
46 40 -36
47 40 -36
48 -11 -25
49 -11 -25
50 -11 -25
51 12 -37
52 12 -37
53 12 -37
54 12 -37
55 -33 41
56 -33 41
57 -33 41
58 -33 41
59 -33 41
60 -46 -9
61 -46 -9
62 -26 -20
63 -26 -20
64 -26 -20
65 -26 -20
66 -26 -20
67 -41 -4
68 -41 -4
69 -41 -4
70 -41 0
71 -41 0
72 -41 0
73 -41 0
74 -47 -14
75 -47 -14
76 -47 -14
77 -47 -14
78 -47 -14
79 12 -36
80 12 -36
81 12 -36
82 -8 9
83 -8 9
84 -8 9
85 -8 9
86 3 7
87 3 7
88 3 7
89 20 -21
90 20 -21
91 20 -21
92 -10 42
93 -10 42
94 -10 42
95 -10 42
96 -39 21
97 -39 21
98 -39 21
99 -39 21
100 -39 21
101 -39 21
102 -15 22
103 -15 22
104 -15 22
105 -15 22
106 -1 -3
107 -1 -3
108 -1 -3
109 25 33
110 25 33
111 25 33
112 25 33
113 25 33
114 -43 12
115 -43 12
116 -43 12
117 -10 -20
118 -10 -20
119 -10 -20
120 -10 -20
121 31 13
122 31 13
123 31 13
124 31 13
125 31 13
126 -39 49
127 -39 49
128 -39 49
129 -39 49
130 -39 49
131 -39 49
132 -30 1
133 -30 1
134 -37 31
135 -37 31
136 28 -38
137 28 -38
138 28 -38
139 28 -38
140 39 -41
141 39 -41
142 39 -41
143 39 -41
144 39 -41
145 39 -41
146 -46 -35
147 -46 -35
148 -46 -35
149 -46 -35
150 -46 -35
151 -46 -35
152 39 20
153 39 20
154 39 20
155 -41 11
156 -41 11
157 -41 11
158 -41 11
159 -41 11
160 33 43
161 33 43
162 -2 8
163 -2 8
164 -2 8
165 -2 8
166 43 -34
167 43 -34
168 43 -34
169 43 -34
170 -23 36
171 -14 38
172 -14 38
173 -14 38
174 -14 38
175 -14 38
176 -14 38
177 40 -22
178 40 -22
179 40 -22
180 40 -22
181 -4 5
182 -4 5
183 -4 5
184 -4 5
185 -4 5
186 -4 5
187 37 45
188 37 45
189 37 45
190 11 24
191 11 24
192 11 24
193 11 24
194 11 24
195 9 39
196 9 39
DEMAND_SECTION
1 0
2 32
3 8
4 1
5 16
6 2
7 2
8 2
9 32
10 8
11 2
12 2
13 2
14 1
15 32
16 16
17 8
18 2
19 2
20 1
21 16
22 8
23 2
24 2
25 2
26 32
27 16
28 8
29 2
30 1
31 32
32 32
33 8
34 2
35 32
36 32
37 1
38 32
39 32
40 16
41 2
42 16
43 8
44 16
45 8
46 2
47 1
48 16
49 8
50 1
51 32
52 16
53 8
54 2
55 32
56 16
57 2
58 2
59 2
60 32
61 16
62 32
63 16
64 2
65 2
66 1
67 32
68 32
69 8
70 32
71 8
72 2
73 1
74 32
75 16
76 8
77 2
78 1
79 32
80 32
81 2
82 32
83 16
84 2
85 1
86 32
87 32
88 2
89 32
90 8
91 1
92 32
93 2
94 2
95 1
96 16
97 8
98 2
99 2
100 2
101 1
102 32
103 32
104 2
105 2
106 32
107 8
108 2
109 32
110 16
111 2
112 2
113 1
114 32
115 8
116 2
117 16
118 2
119 2
120 2
121 16
122 8
123 2
124 2
125 2
126 32
127 32
128 8
129 2
130 2
131 2
132 32
133 32
134 32
135 8
136 32
137 16
138 8
139 2
140 32
141 8
142 2
143 2
144 2
145 1
146 32
147 8
148 2
149 2
150 2
151 1
152 32
153 32
154 2
155 32
156 32
157 2
158 2
159 2
160 32
161 32
162 32
163 16
164 2
165 2
166 32
167 16
168 8
169 1
170 32
171 32
172 32
173 8
174 2
175 2
176 1
177 16
178 2
179 2
180 2
181 32
182 16
183 8
184 2
185 2
186 1
187 32
188 8
189 2
190 32
191 2
192 2
193 2
194 1
195 16
196 8
DEPOT_SECTION
1
-1
EOF