SDVRP instances/custom_instances/p01_19_split0.sol
195 -8 12 11 50 51 53 52 80 78 79 -13 10 9 138 136 137 135 89 90 88 38 40 39 -18 16 15 14 19 17 127 129 128 126 125 130 83 84 82 -28 29 26 25 27 131 132 107 105 -37 21 24 23 20 22 152 151 153 120 123 121 122 124 -42 41 186 187 188 159 160 -55 54 58 56 57 36 34 35 134 133 -60 59 77 76 74 73 75 61 62 65 64 63 -71 70 72 69 66 68 67 47 49 48 116 -86 87 85 162 164 161 163 -93 94 92 91 175 171 172 174 173 170 169 104 103 -99 96 100 95 97 98 113 115 114 155 157 158 156 154 -101 102 81 182 181 183 185 184 180 -106 118 119 117 32 33 30 31 4 6 5 7 147 148 150 146 145 149 -112 109 111 110 108 2 3 1 194 195 189 193 190 191 192 -140 141 143 144 139 142 43 46 45 44 167 165 166 168 177 178 176 179 0 





OBJ=
1565.464
BEST_KNOWN=
0.000